54 66 
66 87 
35 17 
66 51 
21 92 
58 24 
21 9 
56 56 
82 98 
31 63 
40 63 
65 38 
7 24 
74 1 
63 51 
35 17 
69 54 
56 5 
71 23 
8 92 
67 67 
17 88 
28 25 
96 11 
75 27 
74 16 
90 91 
54 49 
16 28 
2 79 
31 38 
96 53 
92 4 
58 63 
79 66 
55 47 
85 24 
87 14 
2 36 
77 77 
15 3 
93 6 
95 47 
7 11 
28 10 
90 59 
0 38 
12 92 
42 22 
7 22 
